c CNF file corresponding to a (partial) station packing problem.
p cnf 1540 229
1 2 3 4 5 6 7 8 9 10 11 12 13 14 0
-1 -2 0
-1 -3 0
-1 -4 0
-1 -5 0
-1 -6 0
-1 -7 0
-1 -8 0
-1 -9 0
-1 -10 0
-1 -11 0
-1 -12 0
-1 -13 0
-1 -14 0
-2 -3 0
-2 -4 0
-2 -5 0
-2 -6 0
-2 -7 0
-2 -8 0
-2 -9 0
-2 -10 0
-2 -11 0
-2 -12 0
-2 -13 0
-2 -14 0
-3 -4 0
-3 -5 0
-3 -6 0
-3 -7 0
-3 -8 0
-3 -9 0
-3 -10 0
-3 -11 0
-3 -12 0
-3 -13 0
-3 -14 0
-4 -5 0
-4 -6 0
-4 -7 0
-4 -8 0
-4 -9 0
-4 -10 0
-4 -11 0
-4 -12 0
-4 -13 0
-4 -14 0
-5 -6 0
-5 -7 0
-5 -8 0
-5 -9 0
-5 -10 0
-5 -11 0
-5 -12 0
-5 -13 0
-5 -14 0
-6 -7 0
-6 -8 0
-6 -9 0
-6 -10 0
-6 -11 0
-6 -12 0
-6 -13 0
-6 -14 0
-7 -8 0
-7 -9 0
-7 -10 0
-7 -11 0
-7 -12 0
-7 -13 0
-7 -14 0
-8 -9 0
-8 -10 0
-8 -11 0
-8 -12 0
-8 -13 0
-8 -14 0
-9 -10 0
-9 -11 0
-9 -12 0
-9 -13 0
-9 -14 0
-10 -11 0
-10 -12 0
-10 -13 0
-10 -14 0
-11 -12 0
-11 -13 0
-11 -14 0
-12 -13 0
-12 -14 0
-13 -14 0
1524 1525 1526 1527 1528 1529 1530 1531 1532 1533 1534 1535 1536 1537 1538 1539 1540 0
-1524 -1525 0
-1524 -1526 0
-1524 -1527 0
-1524 -1528 0
-1524 -1529 0
-1524 -1530 0
-1524 -1531 0
-1524 -1532 0
-1524 -1533 0
-1524 -1534 0
-1524 -1535 0
-1524 -1536 0
-1524 -1537 0
-1524 -1538 0
-1524 -1539 0
-1524 -1540 0
-1525 -1526 0
-1525 -1527 0
-1525 -1528 0
-1525 -1529 0
-1525 -1530 0
-1525 -1531 0
-1525 -1532 0
-1525 -1533 0
-1525 -1534 0
-1525 -1535 0
-1525 -1536 0
-1525 -1537 0
-1525 -1538 0
-1525 -1539 0
-1525 -1540 0
-1526 -1527 0
-1526 -1528 0
-1526 -1529 0
-1526 -1530 0
-1526 -1531 0
-1526 -1532 0
-1526 -1533 0
-1526 -1534 0
-1526 -1535 0
-1526 -1536 0
-1526 -1537 0
-1526 -1538 0
-1526 -1539 0
-1526 -1540 0
-1527 -1528 0
-1527 -1529 0
-1527 -1530 0
-1527 -1531 0
-1527 -1532 0
-1527 -1533 0
-1527 -1534 0
-1527 -1535 0
-1527 -1536 0
-1527 -1537 0
-1527 -1538 0
-1527 -1539 0
-1527 -1540 0
-1528 -1529 0
-1528 -1530 0
-1528 -1531 0
-1528 -1532 0
-1528 -1533 0
-1528 -1534 0
-1528 -1535 0
-1528 -1536 0
-1528 -1537 0
-1528 -1538 0
-1528 -1539 0
-1528 -1540 0
-1529 -1530 0
-1529 -1531 0
-1529 -1532 0
-1529 -1533 0
-1529 -1534 0
-1529 -1535 0
-1529 -1536 0
-1529 -1537 0
-1529 -1538 0
-1529 -1539 0
-1529 -1540 0
-1530 -1531 0
-1530 -1532 0
-1530 -1533 0
-1530 -1534 0
-1530 -1535 0
-1530 -1536 0
-1530 -1537 0
-1530 -1538 0
-1530 -1539 0
-1530 -1540 0
-1531 -1532 0
-1531 -1533 0
-1531 -1534 0
-1531 -1535 0
-1531 -1536 0
-1531 -1537 0
-1531 -1538 0
-1531 -1539 0
-1531 -1540 0
-1532 -1533 0
-1532 -1534 0
-1532 -1535 0
-1532 -1536 0
-1532 -1537 0
-1532 -1538 0
-1532 -1539 0
-1532 -1540 0
-1533 -1534 0
-1533 -1535 0
-1533 -1536 0
-1533 -1537 0
-1533 -1538 0
-1533 -1539 0
-1533 -1540 0
-1534 -1535 0
-1534 -1536 0
-1534 -1537 0
-1534 -1538 0
-1534 -1539 0
-1534 -1540 0
-1535 -1536 0
-1535 -1537 0
-1535 -1538 0
-1535 -1539 0
-1535 -1540 0
-1536 -1537 0
-1536 -1538 0
-1536 -1539 0
-1536 -1540 0
-1537 -1538 0
-1537 -1539 0
-1537 -1540 0
-1538 -1539 0
-1538 -1540 0
-1539 -1540 0
